512,237
651,406
626,577
607,634
563,388
633,371
847,-107
912,-48
1155,331
999,88
822,212
1125,336
771,406
744,469
910,721
464,833
654,491
624,424
563,388
227,637
630,731
644,520
744,469
1045,670
1125,336
651,406
633,371
580,93
464,-21
646,358
918,443
792,748
910,721
994,507
773,691
626,577
